g3 0 1 0	# problem cvxnonsep_nsig40
 40 1 1 0 0	# vars, constraints, objectives, ranges, eqns
 1 0	# nonlinear constraints, objectives
 0 0	# network constraints: nonlinear, linear
 40 0 0	# nonlinear vars in constraints, objectives, both
 0 0 0 1	# linear network variables; functions; arith, flags
 0 0 0 20 0	# discrete variables: binary, integer, nonlinear (b,c,o)
 40 40	# nonzeros in Jacobian, gradients
 3 3	# max name lengths: constraints, variables
 0 0 0 0 0	# common exprs: b,c,o,c1,o1
b
0 1e-5 10
0 1e-5 10
0 1e-5 10
0 1e-5 10
0 1e-5 10
0 1e-5 10
0 1e-5 10
0 1e-5 10
0 1e-5 10
0 1e-5 10
0 1e-5 10
0 1e-5 10
0 1e-5 10
0 1e-5 10
0 1e-5 10
0 1e-5 10
0 1e-5 10
0 1e-5 10
0 1e-5 10
0 1e-5 10
0 1 10
0 1 10
0 1 10
0 1 10
0 1 10
0 1 10
0 1 10
0 1 10
0 1 10
0 1 10
0 1 10
0 1 10
0 1 10
0 1 10
0 1 10
0 1 10
0 1 10
0 1 10
0 1 10
0 1 10
x40
0 1e-5
1 1e-5
2 1e-5
3 1e-5
4 1e-5
5 1e-5
6 1e-5
7 1e-5
8 1e-5
9 1e-5
10 1e-5
11 1e-5
12 1e-5
13 1e-5
14 1e-5
15 1e-5
16 1e-5
17 1e-5
18 1e-5
19 1e-5
20 1
21 1
22 1
23 1
24 1
25 1
26 1
27 1
28 1
29 1
30 1
31 1
32 1
33 1
34 1
35 1
36 1
37 1
38 1
39 1
r
1 -1
C0
o16
o2
o2
o2
o2
o2
o2
o2
o2
o2
o2
o2
o2
o2
o2
o2
o2
o2
o2
o2
o2
o2
o2
o2
o2
o2
o2
o2
o2
o2
o2
o2
o2
o2
o2
o2
o2
o2
o2
o2
o2
n.2
o5
v20
n3.5e-2
o5
v21
n3e-3
o5
v22
n4e-2
o5
v23
n4.4e-2
o5
v24
n4.6e-2
o5
v25
n4e-2
o5
v26
n3.7e-2
o5
v27
n2.4e-2
o5
v28
n8e-3
o5
v29
n1.9e-2
o5
v30
n6e-3
o5
v31
n1e-3
o5
v32
n4.4e-2
o5
v33
n1.4e-2
o5
v34
n1.4e-2
o5
v35
n1.6e-2
o5
v36
n2.2e-2
o5
v37
n3e-2
o5
v38
n1e-3
o5
v39
n3.9e-2
o5
v0
n2.6e-2
o5
v1
n4e-2
o5
v2
n1.6e-2
o5
v3
n2.1e-2
o5
v4
n3e-3
o5
v5
n8e-3
o5
v6
n3.1e-2
o5
v7
n1.5e-2
o5
v8
n4.2e-2
o5
v9
n6e-3
o5
v10
n4.6e-2
o5
v11
n2.5e-2
o5
v12
n3.3e-2
o5
v13
n4.7e-2
o5
v14
n1.3e-2
o5
v15
n1.9e-2
o5
v16
n2.2e-2
o5
v17
n3.6e-2
o5
v18
n3.8e-2
o5
v19
n5e-3
O0 0
n-0
k39
1
2
3
4
5
6
7
8
9
10
11
12
13
14
15
16
17
18
19
20
21
22
23
24
25
26
27
28
29
30
31
32
33
34
35
36
37
38
39
J0 40
0 0
1 0
2 0
3 0
4 0
5 0
6 0
7 0
8 0
9 0
10 0
11 0
12 0
13 0
14 0
15 0
16 0
17 0
18 0
19 0
20 0
21 0
22 0
23 0
24 0
25 0
26 0
27 0
28 0
29 0
30 0
31 0
32 0
33 0
34 0
35 0
36 0
37 0
38 0
39 0
G0 40
0 .25
1 .98
2 1.71
3 1.75
4 .54
5 .42
6 1.13
7 1.28
8 .83
9 .41
10 1.9
11 .16
12 .21
13 .28
14 .33
15 1.24
16 1.15
17 .1
18 1.86
19 1.46
20 1.1
21 1.86
22 .86
23 1.23
24 .72
25 .47
26 .98
27 .39
28 .25
29 .41
30 .29
31 .38
32 1.49
33 1.27
34 .56
35 1.08
36 1.39
37 1
38 1.37
39 .89
